505,164
822,600
681,556
892,697
1117,89
802,318
852,351
524,891
622,397
533,383
1051,286
630,81
998,842
718,169
745,605
448,639
545,673
629,478
425,323
672,434
649,613
814,338
621,406
291,406
361,243
736,235
1023,517
1108,545
810,805
609,458
898,833
947,599
450,860
723,364
545,673
829,554
